n_res = 4;
rcap = [21, 18, 99, 90];
rtype = [1, 1, 2, 2];
n_tasks = 16;
modes = [ {1, 2, 3}, {4, 5, 6}, {7, 8, 9}, {10, 11, 12}, {13, 14, 15}, {16, 17, 18}, {19, 20, 21}, {22, 23, 24}, {25, 26, 27}, {28, 29, 30}, {31, 32, 33}, {34, 35, 36}, {37, 38, 39}, {40, 41, 42}, {43, 44, 45}, {46, 47, 48} ];
succ = [ {13, 15, 16}, {4, 6, 13}, {6, 11, 13}, {5, 10}, {7, 8, 12}, {7, 10}, {9}, {9, 11}, {14, 15}, {12, 15}, {16}, {14, 16}, {14}, {}, {}, {} ];
n_opt = 48;
dur = [5, 5, 7, 6, 6, 10, 1, 2, 3, 2, 2, 7, 5, 5, 5, 3, 4, 4, 2, 4, 6, 6, 8, 9, 3, 9, 10, 3, 6, 9, 1, 6, 10, 3, 3, 10, 4, 10, 10, 6, 6, 7, 2, 6, 10, 3, 4, 8];
rreq = [| 10, 10, 10,  6,  7,  6,  7,  6,  6,  6,  7,  3,  4,  5,  3,  8,  5,  4, 10,  9,  7,  3,  3,  3,  8,  7,  6,  8,  8,  7,  2,  1,  1,  6,  7,  5, 10,  5,  4,  7,  6,  1,  7,  6,  3,  5,  5,  5
        |  5,  4,  4,  7,  8,  5,  2,  1,  1,  6,  7,  5,  7,  7,  7,  5,  1,  2,  5,  4,  4,  7,  6,  6,  7,  4,  3,  3,  3,  2,  9,  9,  7,  7,  5,  4,  8,  6,  7,  4,  5,  1,  2,  2,  1, 10, 10, 10
        | 10, 10,  2, 10, 10, 10,  9,  6,  6,  7,  7,  5,  3,  2,  2,  8,  4,  6,  9,  8,  6,  9,  9,  8,  7,  5,  3,  4,  3,  3,  7,  6,  6,  4,  5,  4,  5,  3,  1,  6,  5,  3,  4,  2,  2,  6,  5,  4
        |  9, 10,  8,  8,  7,  5,  5,  4,  3,  6,  5,  3,  3,  3,  4, 10,  8,  5,  6,  5,  4,  3,  3,  3,  5,  4,  2,  7,  4,  4,  3,  3,  2,  9,  8,  6,  5,  5,  5,  2,  2,  1,  9,  5,  4,  8,  8,  3 |];
